32      4       
10      10      10      10      
0       0       0       0       0       5       2       17      29      30      31      
3       1       1       1       0       3       3       10      28      
6       3       4       5       0       1       4       
4       6       3       0       1       1       5       
3       7       0       6       2       1       6       
8       4       0       2       6       4       7       8       20      27      
9       0       1       6       4       3       9       25      26      
8       2       5       4       0       2       11      25      
7       0       3       3       1       1       11      
7       0       3       6       3       1       11      
3       4       0       4       4       2       12      15      
4       2       8       3       0       2       13      24      
8       0       4       5       2       1       14      
6       0       4       4       4       3       16      22      23      
2       5       6       4       0       2       18      22      
6       5       2       4       0       1       18      
6       7       0       5       4       2       21      22      
2       0       4       2       2       1       19      
5       2       0       3       4       1       21      
10      0       5       5       5       1       23      
1       5       0       5       2       1       32      
10      0       4       2       7       1       32      
10      0       5       5       8       1       32      
1       2       0       4       5       1       32      
7       6       4       4       0       1       32      
2       3       5       0       9       1       32      
2       0       3       3       2       1       32      
1       3       3       3       0       1       32      
2       0       5       6       6       1       32      
4       0       5       4       2       1       32      
2       5       5       0       5       1       32      
0       0       0       0       0       0       
